(set-info :source  loris-7.ddns.comp.nus.edu.sg/~project/hip/) 
;Variables declarations
(declare-fun n () Int)
(declare-fun sm () Int)
(declare-fun bg () Int)
(declare-fun d_2304 () Int)
(declare-fun flted_9_2303 () Int)
(declare-fun d_2317 () Int)
(declare-fun sm_2301 () Int)
(declare-fun bg_2302 () Int)
(declare-fun xs () Int)
(declare-fun xs_primed () Int)
(declare-fun bg_2314 () Int)
(declare-fun sm_2313 () Int)
(declare-fun n_2312 () Int)
(declare-fun c_primed () Int)
(declare-fun n_2339 () Int)
(declare-fun middle_primed () Int)
(declare-fun sm_2340 () Int)
(declare-fun bg_2341 () Int)
(declare-fun n2_2359 () Int)
(declare-fun s1_primed () Int)
;Relations declarations
;Axioms assertions
;Antecedent
(assert (< 0 n))
(assert (<= 0 flted_9_2303))
(assert (= (+ flted_9_2303 1) n))
(assert (<= sm d_2304))
(assert (<= d_2304 bg))
(assert (= sm_2301 sm))
(assert (= bg_2302 bg))
(assert (= d_2317 d_2304))
(assert (<= d_2317 bg_2302))
(assert (<= sm_2301 d_2317))
(assert (= (+ flted_9_2303 1) n_2312))
(assert (<= sm_2313 d_2317))
(assert (<= d_2317 bg_2314))
(assert (= sm_2301 sm_2313))
(assert (= bg_2302 bg_2314))
(assert (> xs 0))
(assert (= c_primed n_2312))
(assert (or (and (< xs_primed 1) (= middle_primed 0)) (and (and (<= sm_2340 bg_2341) (<= 1 middle_primed)) (> xs_primed 0))))
(assert (<= 0 n_2339))
(assert (< 0 middle_primed))
(assert (<= 0 n_2312))
(assert (= bg_2341 bg_2314))
(assert (= sm_2340 sm_2313))
(assert (= n_2339 n_2312))
(assert (= (+ middle_primed middle_primed) c_primed))
(assert (= n_2339 (+ n2_2359 middle_primed)))
(assert (< 0 n2_2359))
(assert (or (and (< s1_primed 1) (= n2_2359 0)) (and (and (<= sm_2340 bg_2341) (<= 1 n2_2359)) (> s1_primed 0))))
;Negation of Consequence
(assert (not (or (= n2_2359 0) (< s1_primed 1))))
(check-sat)